JulietBench/Juliet_Based_Patch_Bench/FFmpeg/CWE-189-Numeric-Errors/CVE_2013_0844_85a14dbd5dca34320f58b1ba11dd6dd0df4fb3be/Resultadpcm_decode_frame_Snippet_patch2EQ.smt2
; benchmark generated from python API
(set-info :status unknown)
(declare-fun R () (_ BitVec 32))
(declare-fun rdx () (_ BitVec 64))
(declare-fun rsi () (_ BitVec 64))
(assert
 (let (($x1419 (= (_ bv5 32) R)))
 (let ((?x55 ((_ extract 4 0) rdx)))
 (let ((?x45 (bvmul (_ bv31 5) ?x55)))
 (let ((?x74 (bvadd (_ bv1 5) ?x45)))
 (let ((?x97 (concat (_ bv0 59) ?x74)))
 (let ((?x1715 (bvashr (_ bv2 64) ?x97)))
 (let ((?x1639 ((_ extract 31 0) ?x1715)))
 (let (($x1641 (bvsge (_ bv0 32) ?x1639)))
 (let (($x1434 (and $x1641 $x1419)))
 (let (($x1445 (= (_ bv0 32) R)))
 (let (($x1426 (bvslt (_ bv0 32) ?x1639)))
 (let ((?x1461 (bvadd (_ bv4294967295 32) ?x1639)))
 (let (($x1421 (bvsge (_ bv0 32) ?x1461)))
 (let (($x1451 (and $x1421 $x1426 $x1445)))
 (let (($x1430 (bvslt (_ bv0 32) ?x1461)))
 (let ((?x1637 (bvadd (_ bv4294967294 32) ?x1639)))
 (let (($x1633 (bvsge (_ bv0 32) ?x1637)))
 (let (($x1636 (and $x1633 $x1430 $x1426 $x1445)))
 (let (($x1431 (or $x1636 $x1451 $x1434)))
 (let ((?x8 ((_ extract 31 0) rsi)))
 (let ((?x91 ((_ extract 31 31) rsi)))
 (let ((?x72 (concat (concat (concat (concat (concat ?x91 ?x91) ?x91) ?x91) ?x91) ?x91)))
 (let ((?x123 (concat (concat (concat (concat (concat ?x72 ?x91) ?x91) ?x91) ?x91) ?x91)))
 (let ((?x112 (concat (concat (concat (concat (concat ?x123 ?x91) ?x91) ?x91) ?x91) ?x91)))
 (let ((?x100 (concat (concat (concat (concat (concat ?x112 ?x91) ?x91) ?x91) ?x91) ?x91)))
 (let ((?x82 (concat (concat (concat (concat (concat ?x100 ?x91) ?x91) ?x91) ?x91) ?x91)))
 (let ((?x101 (concat (concat (concat (concat (concat ?x82 ?x91) ?x91) ?x91) ?x91) ?x91)))
 (let ((?x93 (concat (concat ?x101 ?x91) ?x8)))
 (let ((?x120 (bvashr ?x93 ?x97)))
 (let ((?x77 ((_ extract 31 0) ?x120)))
 (let (($x107 (bvsge (_ bv0 32) ?x77)))
 (let (($x1589 (and $x107 $x1419)))
 (let (($x150 (bvslt (_ bv0 32) ?x77)))
 (let ((?x158 (bvadd (_ bv4294967295 32) ?x77)))
 (let (($x164 (bvsge (_ bv0 32) ?x158)))
 (let (($x1645 (and $x164 $x150 $x1445)))
 (let (($x22 (bvslt (_ bv0 32) ?x158)))
 (let ((?x147 (bvadd (_ bv4294967294 32) ?x77)))
 (let (($x769 (bvsge (_ bv0 32) ?x147)))
 (let (($x1460 (and $x769 $x22 $x150 $x1445)))
 (let (($x720 (bvslt (_ bv0 32) ?x147)))
 (let ((?x1256 (bvadd (_ bv4294967293 32) ?x77)))
 (let (($x1229 (bvsge (_ bv0 32) ?x1256)))
 (let (($x1429 (and $x1229 $x720 $x22 $x150 $x1445)))
 (let (($x1344 (or $x1429 $x1460 $x1645 $x1589)))
 (and $x1344 $x1431)))))))))))))))))))))))))))))))))))))))))))))))
(check-sat)
